100
100
100
100
100
99
99
98
96
95
95
94
93
93
92
90
90
89
86
86
85
85
84
83
82
82
82
81
80
79
77
77
77
76
75
75
75
74
73
71
71
69
68
67
67
67
65
63
63
60
57
56
56
55
55
54
54
54
53
53
51
51
47
46
46
45
45
45
44
44
44
44
43
41
40
40
39
39
39
39
38
36
36
34
33
33
32
32
31
30
29
28
26
25
24
24
23
22
22
22
21
20
